clingo version 5.5.2
Reading from ...nt/beegfs/home/jubruns/encoding/mif.lp ...
Solving...
Answer: 1
move(1,(7,6),(7,5),3) move(1,(7,5),(8,5),16) move(2,(4,13),(5,13),3) move(2,(5,13),(6,13),4) move(2,(6,13),(7,13),5) move(2,(7,13),(8,13),6) move(2,(8,13),(9,13),7) move(2,(9,13),(9,12),9) move(2,(9,12),(9,13),10) move(2,(9,13),(10,13),16) move(3,(11,13),(12,13),3) move(3,(12,13),(13,13),4) move(3,(13,13),(12,13),6) move(3,(12,13),(11,13),7) move(3,(11,13),(12,13),8) move(3,(12,13),(13,13),9) move(3,(13,13),(13,12),13) move(3,(13,12),(13,13),14) move(4,(4,15),(3,15),1) move(4,(3,15),(3,14),2) move(4,(3,14),(3,13),3) move(4,(3,13),(4,13),4) move(4,(4,13),(5,13),5) move(4,(5,13),(6,13),6) move(4,(6,13),(7,13),7) move(4,(7,13),(8,13),8) move(4,(8,13),(9,13),9) move(4,(9,13),(10,13),10) move(4,(10,13),(11,13),11) move(4,(11,13),(12,13),12) move(4,(12,13),(13,13),13) move(4,(13,13),(13,14),14) move(4,(13,14),(13,15),15) move(4,(13,15),(14,15),16)
SATISFIABLE

Models       : 1+
Calls        : 1
Time         : 0.161s (Solving: 0.00s 1st Model: 0.00s Unsat: 0.00s)
CPU Time     : 0.150s

Choices      : 48       (Domain: 48)
Conflicts    : 3        (Analyzed: 3)
Restarts     : 0       
Model-Level  : 41.0    
Problems     : 1        (Average Length: 0.00 Splits: 0)
Lemmas       : 3        (Deleted: 0)
  Binary     : 1        (Ratio:  33.33%)
  Ternary    : 1        (Ratio:  33.33%)
  Conflict   : 3        (Average Length:    3.3 Ratio: 100.00%) 
  Loop       : 0        (Average Length:    0.0 Ratio:   0.00%) 
  Other      : 0        (Average Length:    0.0 Ratio:   0.00%) 
Backjumps    : 3        (Average:  2.33 Max:   4 Sum:      7)
  Executed   : 3        (Average:  2.33 Max:   4 Sum:      7 Ratio: 100.00%)
  Bounded    : 0        (Average:  0.00 Max:   0 Sum:      0 Ratio:   0.00%)

Rules        : 75828    (Original: 44016)
  Choice     : 64      
  Heuristic  : 1675     (Original: 2079)
Atoms        : 38314    (Original: 23603 Auxiliary: 14711)
Bodies       : 41966    (Original: 24622)
  Count      : 43       (Original: 476)
Equivalences : 55042    (Atom=Atom: 139 Body=Body: 176 Other: 54727)
Tight        : Yes
Variables    : 41412    (Eliminated:    0 Frozen: 6300)
Constraints  : 88276    (Binary:  82.3% Ternary:  12.1% Other:   5.6%)

